K=4;
N=8;
P=[862 930 668 545];
R=[3 8 26 11];
A=[4 3 3 2];
C=[41 59 34 12];
M=[
[ 0 39 84 41 8 41 93 29 ]
[ 39 0 95 74 91 55 13 12 ]
[ 84 95 0 75 84 75 36 35 ]
[ 41 74 75 0 46 64 11 68 ]
[ 8 91 84 46 0 72 6 58 ]
[ 41 55 75 64 72 0 96 35 ]
[ 93 13 36 11 6 96 0 79 ]
[ 29 12 35 68 58 35 79 0 ]
];
